Pk = array1d(0..15, [8,1,7,15,10,4,2,3,6,9,11,0,5,12,14,13]);
Ps = array1d(0..15, [0,13,10,7,4,1,14,11,8,5,2,15,12,9,6,3]);
n = 6;
objective_bound = 20;

%Original ShiftRows : 0,13,10,7,4,1,14,11,8,5,2,15,12,9,6,3